(set-info :source |printed by MathSAT|)
(declare-fun main@%_4_0_3 () Int)
(declare-fun .y.16 () Int)
(declare-fun .y.12 () Int)
(declare-fun .y.17 () Int)
(declare-fun main@%shadow.mem.0_0_3 () (Array Int Int))
(declare-fun .y.18 () (Array Int Int))
(declare-fun main@%_5_0_3 () Int)
(declare-fun .y.19 () Int)
(declare-fun .y.13 () Int)
(declare-fun .y.20 () Int)
(declare-fun main@%shadow.mem1.0_0_3 () (Array Int Int))
(declare-fun .y.21 () (Array Int Int))
(declare-fun main@%i.1.i_0_1 () Int)
(declare-fun .y.22 () Int)
(declare-fun main@%j.1.i_0_1 () Int)
(declare-fun .y.23 () Int)
(declare-fun main@%_2_0_3 () Int)
(declare-fun .y.24 () Int)
(declare-fun .loc.14 () Bool)
(declare-fun .loc.25 () Bool)
(declare-fun .loc.15 () Bool)
(declare-fun .loc.26 () Bool)
(declare-fun main@%_21_0_0 () Int)
(declare-fun main@%_20_0_0 () Int)
(declare-fun main@%_19_0_0 () Int)
(declare-fun main@%_23_0_0 () Int)
(define-fun .def_8 () Int (! main@%_4_0_3 :next |.y.16|))
(define-fun .def_10 () Int (! .y.12 :next |.y.17|))
(define-fun .def_12 () (Array Int Int) (! main@%shadow.mem.0_0_3 :next |.y.18|))
(define-fun .def_14 () Int (! main@%_5_0_3 :next |.y.19|))
(define-fun .def_16 () Int (! .y.13 :next |.y.20|))
(define-fun .def_18 () (Array Int Int) (! main@%shadow.mem1.0_0_3 :next |.y.21|))
(define-fun .def_20 () Int (! main@%i.1.i_0_1 :next |.y.22|))
(define-fun .def_22 () Int (! main@%j.1.i_0_1 :next |.y.23|))
(define-fun .def_24 () Int (! main@%_2_0_3 :next |.y.24|))
(define-fun .def_26 () Bool (! .loc.14 :next |.loc.25|))
(define-fun .def_28 () Bool (! .loc.15 :next |.loc.26|))
(define-fun .def_56 () Int (! main@%_21_0_0 :next |.xtv.1|))
(define-fun .def_57 () Int (! main@%_20_0_0 :next |.xtv.2|))
(define-fun .def_61 () Int (! main@%_19_0_0 :next |.xtv.3|))
(define-fun .def_114 () Int (! main@%_23_0_0 :next |.xtv.4|))
(define-fun .def_96 () Bool (not .def_26))
(define-fun .def_38 () Bool (not .def_28))
(define-fun .def_199 () Bool (! (and .def_38 .def_96) :init true))
(define-fun .def_116 () Int (select .def_12 .def_56))
(define-fun .def_115 () Int (select .def_18 .def_114))
(define-fun .def_117 () Bool (= .def_115 .def_116))
(define-fun .def_189 () Bool (not .def_117))
(define-fun .def_150 () Bool (<= .def_114 0))
(define-fun .def_151 () Bool (not .def_150))
(define-fun .def_31 () Bool (<= .def_14 0))
(define-fun .def_152 () Bool (or .def_31 .def_151))
(define-fun .def_143 () Int (* (- 1) .def_114))
(define-fun .def_146 () Int (+ .def_22 .def_143))
(define-fun .def_147 () Int (+ .def_14 .def_146))
(define-fun .def_148 () Bool (= .def_147 0))
(define-fun .def_138 () Bool (<= .def_56 0))
(define-fun .def_139 () Bool (not .def_138))
(define-fun .def_33 () Bool (<= .def_8 0))
(define-fun .def_140 () Bool (or .def_33 .def_139))
(define-fun .def_131 () Int (* (- 1) .def_56))
(define-fun .def_134 () Int (+ .def_131 .def_57))
(define-fun .def_135 () Int (+ .def_8 .def_134))
(define-fun .def_136 () Bool (= .def_135 0))
(define-fun .def_69 () Int (* (- 1) .def_61))
(define-fun .def_128 () Int (+ .def_57 .def_69))
(define-fun .def_129 () Bool (= .def_128 1))
(define-fun .def_124 () Bool (<= .def_24 .def_20))
(define-fun .def_125 () Bool (not .def_124))
(define-fun .def_121 () Int (* 2 .def_22))
(define-fun .def_122 () Int (+ .def_121 .def_69))
(define-fun .def_123 () Bool (= .def_122 0))
(define-fun .def_126 () Bool (and .def_123 .def_125))
(define-fun .def_130 () Bool (and .def_126 .def_129))
(define-fun .def_137 () Bool (and .def_130 .def_136))
(define-fun .def_141 () Bool (and .def_137 .def_140))
(define-fun .def_34 () Bool (not .def_33))
(define-fun .def_142 () Bool (and .def_34 .def_141))
(define-fun .def_149 () Bool (and .def_142 .def_148))
(define-fun .def_153 () Bool (and .def_149 .def_152))
(define-fun .def_32 () Bool (not .def_31))
(define-fun .def_154 () Bool (and .def_32 .def_153))
(define-fun .def_190 () Bool (and .def_154 .def_189))
(define-fun .def_191 () Bool (and .def_28 .def_190))
(define-fun .def_192 () Bool (and .def_96 .def_191))
(define-fun .def_193 () Bool (and .loc.25 .def_192))
(define-fun .def_187 () Bool (= .def_20 .y.24))
(define-fun .def_180 () Bool (= .y.22 1))
(define-fun .def_178 () Bool (= .y.23 0))
(define-fun .def_158 () Bool (not .loc.25))
(define-fun .def_176 () Bool (and .def_26 .def_158))
(define-fun .def_177 () Bool (and .def_38 .def_176))
(define-fun .def_179 () Bool (and .def_177 .def_178))
(define-fun .def_181 () Bool (and .def_179 .def_180))
(define-fun .def_74 () Bool (<= .def_20 .def_10))
(define-fun .def_182 () Bool (and .def_74 .def_181))
(define-fun .def_40 () Bool (= .def_8 .y.16))
(define-fun .def_183 () Bool (and .def_40 .def_182))
(define-fun .def_161 () Bool (= .def_12 .y.18))
(define-fun .def_184 () Bool (and .def_161 .def_183))
(define-fun .def_42 () Bool (= .def_14 .y.19))
(define-fun .def_185 () Bool (and .def_42 .def_184))
(define-fun .def_164 () Bool (= .def_18 .y.21))
(define-fun .def_186 () Bool (and .def_164 .def_185))
(define-fun .def_188 () Bool (and .def_186 .def_187))
(define-fun .def_194 () Bool (or .def_188 .def_193))
(define-fun .def_174 () Bool (= .def_24 .y.24))
(define-fun .def_170 () Int (* (- 1) .y.23))
(define-fun .def_171 () Int (+ .def_22 .def_170))
(define-fun .def_172 () Bool (= .def_171 (- 1)))
(define-fun .def_166 () Int (* (- 1) .y.22))
(define-fun .def_167 () Int (+ .def_20 .def_166))
(define-fun .def_168 () Bool (= .def_167 (- 2)))
(define-fun .def_155 () Bool (and .def_117 .def_154))
(define-fun .def_156 () Bool (and .def_28 .def_155))
(define-fun .def_157 () Bool (and .def_96 .def_156))
(define-fun .def_159 () Bool (and .def_157 .def_158))
(define-fun .def_160 () Bool (and .def_40 .def_159))
(define-fun .def_162 () Bool (and .def_160 .def_161))
(define-fun .def_163 () Bool (and .def_42 .def_162))
(define-fun .def_165 () Bool (and .def_163 .def_164))
(define-fun .def_169 () Bool (and .def_165 .def_168))
(define-fun .def_173 () Bool (and .def_169 .def_172))
(define-fun .def_175 () Bool (and .def_173 .def_174))
(define-fun .def_195 () Bool (or .def_175 .def_194))
(define-fun .def_196 () Bool (and .loc.26 .def_195))
(define-fun .def_111 () Bool (<= .y.22 0))
(define-fun .def_112 () Bool (not .def_111))
(define-fun .def_108 () Bool (<= .y.16 0))
(define-fun .def_109 () Bool (not .def_108))
(define-fun .def_105 () Bool (<= .y.19 0))
(define-fun .def_106 () Bool (not .def_105))
(define-fun .def_103 () Bool (= .y.20 0))
(define-fun .def_101 () Bool (= .y.17 1))
(define-fun .def_97 () Bool (and .loc.25 .def_96))
(define-fun .def_98 () Bool (and .def_38 .def_97))
(define-fun .def_44 () Bool (not .loc.26))
(define-fun .def_99 () Bool (and .def_44 .def_98))
(define-fun .def_102 () Bool (and .def_99 .def_101))
(define-fun .def_104 () Bool (and .def_102 .def_103))
(define-fun .def_107 () Bool (and .def_104 .def_106))
(define-fun .def_110 () Bool (and .def_107 .def_109))
(define-fun .def_113 () Bool (and .def_110 .def_112))
(define-fun .def_197 () Bool (or .def_113 .def_196))
(define-fun .def_94 () Bool (= .def_20 .y.22))
(define-fun .def_90 () Bool (<= .def_57 0))
(define-fun .def_91 () Bool (not .def_90))
(define-fun .def_92 () Bool (or .def_31 .def_91))
(define-fun .def_85 () Int (* (- 1) .def_57))
(define-fun .def_86 () Int (+ .def_16 .def_85))
(define-fun .def_87 () Int (+ .def_14 .def_86))
(define-fun .def_88 () Bool (= .def_87 0))
(define-fun .def_77 () Bool (<= .def_61 0))
(define-fun .def_78 () Bool (not .def_77))
(define-fun .def_79 () Bool (or .def_33 .def_78))
(define-fun .def_75 () Bool (not .def_74))
(define-fun .def_70 () Int (+ .def_10 .def_69))
(define-fun .def_71 () Int (+ .def_8 .def_70))
(define-fun .def_72 () Bool (= .def_71 0))
(define-fun .def_62 () (Array Int Int) (store .def_12 .def_61 .def_56))
(define-fun .def_63 () Bool (= .y.18 .def_62))
(define-fun .def_58 () (Array Int Int) (store .def_18 .def_57 .def_56))
(define-fun .def_59 () Bool (= .y.21 .def_58))
(define-fun .def_52 () Int (* (- 1) .y.17))
(define-fun .def_53 () Int (+ .def_10 .def_52))
(define-fun .def_54 () Bool (= .def_53 (- 2)))
(define-fun .def_47 () Int (* (- 1) .y.20))
(define-fun .def_48 () Int (+ .def_16 .def_47))
(define-fun .def_49 () Bool (= .def_48 (- 1)))
(define-fun .def_35 () Bool (and .def_32 .def_34))
(define-fun .def_36 () Bool (and .def_26 .def_35))
(define-fun .def_37 () Bool (and .loc.25 .def_36))
(define-fun .def_39 () Bool (and .def_37 .def_38))
(define-fun .def_41 () Bool (and .def_39 .def_40))
(define-fun .def_43 () Bool (and .def_41 .def_42))
(define-fun .def_45 () Bool (and .def_43 .def_44))
(define-fun .def_50 () Bool (and .def_45 .def_49))
(define-fun .def_55 () Bool (and .def_50 .def_54))
(define-fun .def_60 () Bool (and .def_55 .def_59))
(define-fun .def_64 () Bool (and .def_60 .def_63))
(define-fun .def_73 () Bool (and .def_64 .def_72))
(define-fun .def_76 () Bool (and .def_73 .def_75))
(define-fun .def_80 () Bool (and .def_76 .def_79))
(define-fun .def_89 () Bool (and .def_80 .def_88))
(define-fun .def_93 () Bool (and .def_89 .def_92))
(define-fun .def_95 () Bool (and .def_93 .def_94))
(define-fun .def_198 () Bool (! (or .def_95 .def_197) :trans true))
(define-fun .def_200 () Bool (and .def_26 .def_28))
(define-fun .def_201 () Bool (! (not .def_200) :invar-property 0))
(assert true)
